(declare-const p1 Real)
(declare-const fee_bl Real)
(declare-const p7 Real)
(declare-const income Real)
(declare-const p4 Real)
(declare-const p8 Real)
(declare-const p10 Real)
(declare-const p2 Real)
(declare-const p9 Real)
(declare-const p6 Real)
(declare-const p3 Real)
(declare-const p5 Real)
(assert (= p1 (* 0.01 (ite (> income 10756) 10756 income))))
(assert (= p2 (ite (> income 10756) (* 0.02 (- (ite (> income 25499) 25499 income) 10756)) 0)))
(assert (= p3 (ite (> income 25499) (* 0.04 (- (ite (> income 40245) 40245 income) 25499)) 0)))
(assert (= p4 (ite (> income 40245) (* 0.06 (- (ite (> income 55866) 55866 income) 40245)) 0)))
(assert (= p5 (ite (> income 55866) (* 0.08 (- (ite (> income 70606) 70606 income) 55866)) 0)))
(assert (= p6 (ite (> income 70606) (* 0.093 (- (ite (> income 360659) 360659 income) 70606)) 0)))
(assert (= p7 (ite (> income 360659) (* 0.103 (- (ite (> income 432787) 432787 income) 360659)) 0)))
(assert (= p8 (ite (> income 432787) (* 0.113 (- (ite (> income 721314) 721314 income) 432787)) 0)))
(assert (= p9 (ite (> income 721314) (* 0.123 (- (ite (> income 1000000) 1000000 income) 721314)) 0)))
(assert (= p10 (ite (> income 1000000) (* 0.133 (- income 1000000)) 0)))
(assert (= fee_bl (+ (+ (+ (+ (+ (+ (+ (+ (+ p1 p2) p3) p4) p5) p6) p7) p8) p9) p10)))